10J3M/DAT/10J3MNTX-15.dat
10 3
27.9825 5.2898
17.5175 4.1854
18.5969 4.3124
21.1015 4.5936
24.3429 4.9339
21.0985 4.5933
29.4659 5.4283
22.6719 4.7615
24.6681 4.9667
25.3968 5.0395
12.0261