10J3M/SOL/10J3MNTX-15.sol
solution status: optimal solution found
objective value:                     60.1738288507173
x#1#2                               0.844170520254204 	(obj:0)
x#1#3                               0.155829479745796 	(obj:0)
x#4#3                                               1 	(obj:0)
x#5#1                               0.350712844921902 	(obj:0)
x#5#2                               0.649287155078098 	(obj:0)
x#6#3                               0.231859447456078 	(obj:0)
x#7#1                              0.0533349104581225 	(obj:0)
x#7#3                               0.946665089541878 	(obj:0)
x#8#2                                0.91506644702709 	(obj:0)
x#8#3                              0.0849335529729099 	(obj:0)
x#9#1                                               1 	(obj:0)
x#10#1                                              1 	(obj:0)
z                                    60.1738288507173 	(obj:1)
